V_ = 3;
N = 2;
M_ = 4;
CTR = 1;

capacity = array2d(1..V_, 1..N, [
    50, 60,
    40, 50,
    30, 40
]);

availability = array2d(1..V_, 1..N, [
    0.99, 0.98,
    0.97, 0.96,
    0.95, 0.94
]);

HS = array1d(1..M_, [10, 20, 15, 25]);
HB = array1d(1..M_, [2, 4, 3, 5]);

HP = array2d(1..V_, 1..M_, [
    10, 5, 2, 8,
    8, 3, 6, 7,
    5, 9, 4, 3
]);

abandon_prob = array1d(1..M_, [
    0.05, 0.1, 0.07, 0.12
]);

ED = array2d(1..V_, 1..V_, [
    0, 10, 20,
    10, 0, 15,
    20, 15, 0
]);

CA = array2d(1..V_, 1..M_, [
    100, 200, 150, 250,
    120, 180, 160, 220,
    130, 170, 140, 210
]);